p edge 25 30
e 0 1
e 0 5
e 0 8
e 0 18
e 1 3
e 1 6
e 1 14
e 1 20
e 2 7
e 2 13
e 3 12
e 3 24
e 4 14
e 5 7
e 5 15
e 5 16
e 5 20
e 6 9
e 7 21
e 8 9
e 8 10
e 9 17
e 9 18
e 9 23
e 10 20
e 11 14
e 13 17
e 17 24
e 20 23
e 21 23
